data/solutions/recovery/degenerate/intermediate/binding/degenerate_intermediate_instance37/4.sol
Elapsed time: 0.03
Upper bound: 202933.0
Planning weighted value: 10273394001.0
C[0]=202933.0
C[1]=201516.0
C[2]=199768.0
C[3]=195145.0
C[4]=193959.0
C[5]=192475.0
C[6]=191869.0
C[7]=182110.0
C[8]=132788.0
C[9]=125022.0
C[10]=120896.0
C[11]=117617.0
C[12]=117049.0
C[13]=116861.0
C[14]=0.0
C[15]=0.0
y[0]=6
y[1]=5
y[2]=6
y[3]=1
y[4]=9
y[5]=13
y[6]=3
y[7]=5
y[8]=2
y[9]=2
y[10]=2
y[11]=3
y[12]=2
y[13]=10
y[14]=6
y[15]=0
y[16]=6
y[17]=7
y[18]=12
y[19]=2
y[20]=2
y[21]=1
y[22]=13
y[23]=12
y[24]=4
y[25]=10
y[26]=2
y[27]=1
y[28]=5
y[29]=3
y[30]=7
y[31]=12
y[32]=6
y[33]=2
y[34]=12
y[35]=4
y[36]=13
y[37]=9
y[38]=2
y[39]=8
y[40]=9
y[41]=2
y[42]=3
y[43]=0
y[44]=11
y[45]=13
y[46]=7
y[47]=9
y[48]=11
y[49]=2
y[50]=0
y[51]=1
y[52]=1
y[53]=7
y[54]=8
y[55]=3
y[56]=12
y[57]=8
y[58]=1
y[59]=6
y[60]=3
y[61]=1
y[62]=0
y[63]=4
y[64]=5
