data/solutions/recovery/degenerate/intermediate/binding/degenerate_intermediate_instance37/4.log

Log started (V12.6.3.0) Sun Apr 22 12:33:16 2018

New value for default parallel thread count: 1

Problem '/tmp/tmpFuKe5e.pyomo.lp' read.
Read time = 0.01 sec. (0.68 ticks)

Problem name         : /tmp/tmpFuKe5e.pyomo.lp
Objective sense      : Minimize
Variables            :    1058  [Nneg: 1,  Binary: 1040,  General Integer: 17]
Objective nonzeros   :       1
Linear constraints   :     165  [Less: 81,  Equal: 84]
  Nonzeros           :   48052
  RHS nonzeros       :      66

Variables            : Min LB: 0.000000         Max UB: 1.000000       
Objective nonzeros   : Min   : 1.000000         Max   : 1.000000       
Linear constraints   :
  Nonzeros           : Min   : 1.000000         Max   : 128311.0       
  RHS nonzeros       : Min   : 1.000000         Max   : 1.000000       
Tried aggregator 2 times.
MIP Presolve eliminated 119 rows and 791 columns.
Aggregator did 14 substitutions.
Reduced MIP has 32 rows, 253 columns, and 518 nonzeros.
Reduced MIP has 252 binaries, 1 generals, 0 SOSs, and 0 indicators.
Presolve time = 0.00 sec. (3.85 ticks)
Found incumbent of value 765344.000000 after 0.00 sec. (5.10 ticks)
Probing time = 0.00 sec. (0.33 ticks)
Cover probing fixed 0 vars, tightened 2 bounds.
Tried aggregator 1 time.
Reduced MIP has 32 rows, 253 columns, and 518 nonzeros.
Reduced MIP has 252 binaries, 1 generals, 0 SOSs, and 0 indicators.
Presolve time = 0.00 sec. (0.46 ticks)
Probing time = 0.00 sec. (0.30 ticks)
Clique table members: 18.
MIP emphasis: balance optimality and feasibility.
MIP search method: dynamic search.
Parallel mode: none, using 1 thread.
Root relaxation solution time = 0.00 sec. (0.27 ticks)

        Nodes                                         Cuts/
   Node  Left     Objective  IInf  Best Integer    Best Bound    ItCnt     Gap

*     0+    0                       765344.0000   202933.0000            73.48%
      0     0   202933.0000    14   765344.0000   202933.0000       34   73.48%
*     0+    0                       228406.0000   202933.0000            11.15%
      0     0   202933.0000     6   228406.0000       Cuts: 9       44   11.15%
*     0+    0                       202933.0000   202933.0000             0.00%
      0     0        cutoff         202933.0000   202933.0000       44    0.00%
Elapsed time = 0.01 sec. (7.43 ticks, tree = 0.01 MB, solutions = 2)

Implied bound cuts applied:  1
Mixed integer rounding cuts applied:  4
Gomory fractional cuts applied:  2

Root node processing (before b&c):
  Real time             =    0.01 sec. (7.47 ticks)
Sequential b&c:
  Real time             =    0.00 sec. (0.00 ticks)
                          ------------
Total (root+branch&cut) =    0.01 sec. (7.47 ticks)

Solution pool: 2 solutions saved.

MIP - Integer optimal solution:  Objective =  2.0293300000e+05
Solution time =    0.01 sec.  Iterations = 44  Nodes = 0
Deterministic time = 7.47 ticks  (943.83 ticks/sec)


Incumbent solution written to file '/tmp/tmpCHXeIW.cplex.sol'.
